NAME : att48.opt.tour
COMMENT : Optimum solution  for att48   
TYPE : TOUR
DIMENSION : 48
TOUR_SECTION
1
28
29
30
31
32
33
34
35
36
37
38
39
40
41
42
43
44
45
46
47
48
18
13
14
15
16
17
12
4
20
21
22
23
24
25
26
27
2
3
19
5
6
7
8
9
10
11
-1
EOF
